p cnf 399 596
1 2 3 4 5 6 7 8 9 10 11 12 13 14 15 16 17 18 19 20 21 22 23 24 25 26 27 28 29 30 31 32 33 34 35 36 37 38 39 40 41 42 43 44 45 46 47 48 49 50 51 52 53 54 55 56 57 58 59 60 61 62 63 64 65 66 67 68 69 70 71 72 73 74 75 76 77 78 79 80 81 82 83 84 85 86 87 88 89 90 91 92 93 94 95 96 97 98 99 100 101 102 103 104 105 106 107 108 109 110 111 112 113 114 115 116 117 118 119 120 121 122 123 124 125 126 127 128 129 130 131 132 133 134 135 136 137 138 139 140 141 142 143 144 145 146 147 148 149 150 151 152 153 154 155 156 157 158 159 160 161 162 163 164 165 166 167 168 169 170 171 172 173 174 175 176 177 178 179 180 181 182 183 184 185 186 187 188 189 190 191 192 193 194 195 196 197 198 199 200 0
-1 201 0
-2 201 202 0
-201 -2 0
-1 201 0
-3 202 203 0
-202 -3 0
-1 201 0
-4 203 204 0
-203 -4 0
-1 201 0
-5 204 205 0
-204 -5 0
-1 201 0
-6 205 206 0
-205 -6 0
-1 201 0
-7 206 207 0
-206 -7 0
-1 201 0
-8 207 208 0
-207 -8 0
-1 201 0
-9 208 209 0
-208 -9 0
-1 201 0
-10 209 210 0
-209 -10 0
-1 201 0
-11 210 211 0
-210 -11 0
-1 201 0
-12 211 212 0
-211 -12 0
-1 201 0
-13 212 213 0
-212 -13 0
-1 201 0
-14 213 214 0
-213 -14 0
-1 201 0
-15 214 215 0
-214 -15 0
-1 201 0
-16 215 216 0
-215 -16 0
-1 201 0
-17 216 217 0
-216 -17 0
-1 201 0
-18 217 218 0
-217 -18 0
-1 201 0
-19 218 219 0
-218 -19 0
-1 201 0
-20 219 220 0
-219 -20 0
-1 201 0
-21 220 221 0
-220 -21 0
-1 201 0
-22 221 222 0
-221 -22 0
-1 201 0
-23 222 223 0
-222 -23 0
-1 201 0
-24 223 224 0
-223 -24 0
-1 201 0
-25 224 225 0
-224 -25 0
-1 201 0
-26 225 226 0
-225 -26 0
-1 201 0
-27 226 227 0
-226 -27 0
-1 201 0
-28 227 228 0
-227 -28 0
-1 201 0
-29 228 229 0
-228 -29 0
-1 201 0
-30 229 230 0
-229 -30 0
-1 201 0
-31 230 231 0
-230 -31 0
-1 201 0
-32 231 232 0
-231 -32 0
-1 201 0
-33 232 233 0
-232 -33 0
-1 201 0
-34 233 234 0
-233 -34 0
-1 201 0
-35 234 235 0
-234 -35 0
-1 201 0
-36 235 236 0
-235 -36 0
-1 201 0
-37 236 237 0
-236 -37 0
-1 201 0
-38 237 238 0
-237 -38 0
-1 201 0
-39 238 239 0
-238 -39 0
-1 201 0
-40 239 240 0
-239 -40 0
-1 201 0
-41 240 241 0
-240 -41 0
-1 201 0
-42 241 242 0
-241 -42 0
-1 201 0
-43 242 243 0
-242 -43 0
-1 201 0
-44 243 244 0
-243 -44 0
-1 201 0
-45 244 245 0
-244 -45 0
-1 201 0
-46 245 246 0
-245 -46 0
-1 201 0
-47 246 247 0
-246 -47 0
-1 201 0
-48 247 248 0
-247 -48 0
-1 201 0
-49 248 249 0
-248 -49 0
-1 201 0
-50 249 250 0
-249 -50 0
-1 201 0
-51 250 251 0
-250 -51 0
-1 201 0
-52 251 252 0
-251 -52 0
-1 201 0
-53 252 253 0
-252 -53 0
-1 201 0
-54 253 254 0
-253 -54 0
-1 201 0
-55 254 255 0
-254 -55 0
-1 201 0
-56 255 256 0
-255 -56 0
-1 201 0
-57 256 257 0
-256 -57 0
-1 201 0
-58 257 258 0
-257 -58 0
-1 201 0
-59 258 259 0
-258 -59 0
-1 201 0
-60 259 260 0
-259 -60 0
-1 201 0
-61 260 261 0
-260 -61 0
-1 201 0
-62 261 262 0
-261 -62 0
-1 201 0
-63 262 263 0
-262 -63 0
-1 201 0
-64 263 264 0
-263 -64 0
-1 201 0
-65 264 265 0
-264 -65 0
-1 201 0
-66 265 266 0
-265 -66 0
-1 201 0
-67 266 267 0
-266 -67 0
-1 201 0
-68 267 268 0
-267 -68 0
-1 201 0
-69 268 269 0
-268 -69 0
-1 201 0
-70 269 270 0
-269 -70 0
-1 201 0
-71 270 271 0
-270 -71 0
-1 201 0
-72 271 272 0
-271 -72 0
-1 201 0
-73 272 273 0
-272 -73 0
-1 201 0
-74 273 274 0
-273 -74 0
-1 201 0
-75 274 275 0
-274 -75 0
-1 201 0
-76 275 276 0
-275 -76 0
-1 201 0
-77 276 277 0
-276 -77 0
-1 201 0
-78 277 278 0
-277 -78 0
-1 201 0
-79 278 279 0
-278 -79 0
-1 201 0
-80 279 280 0
-279 -80 0
-1 201 0
-81 280 281 0
-280 -81 0
-1 201 0
-82 281 282 0
-281 -82 0
-1 201 0
-83 282 283 0
-282 -83 0
-1 201 0
-84 283 284 0
-283 -84 0
-1 201 0
-85 284 285 0
-284 -85 0
-1 201 0
-86 285 286 0
-285 -86 0
-1 201 0
-87 286 287 0
-286 -87 0
-1 201 0
-88 287 288 0
-287 -88 0
-1 201 0
-89 288 289 0
-288 -89 0
-1 201 0
-90 289 290 0
-289 -90 0
-1 201 0
-91 290 291 0
-290 -91 0
-1 201 0
-92 291 292 0
-291 -92 0
-1 201 0
-93 292 293 0
-292 -93 0
-1 201 0
-94 293 294 0
-293 -94 0
-1 201 0
-95 294 295 0
-294 -95 0
-1 201 0
-96 295 296 0
-295 -96 0
-1 201 0
-97 296 297 0
-296 -97 0
-1 201 0
-98 297 298 0
-297 -98 0
-1 201 0
-99 298 299 0
-298 -99 0
-1 201 0
-100 299 300 0
-299 -100 0
-1 201 0
-101 300 301 0
-300 -101 0
-1 201 0
-102 301 302 0
-301 -102 0
-1 201 0
-103 302 303 0
-302 -103 0
-1 201 0
-104 303 304 0
-303 -104 0
-1 201 0
-105 304 305 0
-304 -105 0
-1 201 0
-106 305 306 0
-305 -106 0
-1 201 0
-107 306 307 0
-306 -107 0
-1 201 0
-108 307 308 0
-307 -108 0
-1 201 0
-109 308 309 0
-308 -109 0
-1 201 0
-110 309 310 0
-309 -110 0
-1 201 0
-111 310 311 0
-310 -111 0
-1 201 0
-112 311 312 0
-311 -112 0
-1 201 0
-113 312 313 0
-312 -113 0
-1 201 0
-114 313 314 0
-313 -114 0
-1 201 0
-115 314 315 0
-314 -115 0
-1 201 0
-116 315 316 0
-315 -116 0
-1 201 0
-117 316 317 0
-316 -117 0
-1 201 0
-118 317 318 0
-317 -118 0
-1 201 0
-119 318 319 0
-318 -119 0
-1 201 0
-120 319 320 0
-319 -120 0
-1 201 0
-121 320 321 0
-320 -121 0
-1 201 0
-122 321 322 0
-321 -122 0
-1 201 0
-123 322 323 0
-322 -123 0
-1 201 0
-124 323 324 0
-323 -124 0
-1 201 0
-125 324 325 0
-324 -125 0
-1 201 0
-126 325 326 0
-325 -126 0
-1 201 0
-127 326 327 0
-326 -127 0
-1 201 0
-128 327 328 0
-327 -128 0
-1 201 0
-129 328 329 0
-328 -129 0
-1 201 0
-130 329 330 0
-329 -130 0
-1 201 0
-131 330 331 0
-330 -131 0
-1 201 0
-132 331 332 0
-331 -132 0
-1 201 0
-133 332 333 0
-332 -133 0
-1 201 0
-134 333 334 0
-333 -134 0
-1 201 0
-135 334 335 0
-334 -135 0
-1 201 0
-136 335 336 0
-335 -136 0
-1 201 0
-137 336 337 0
-336 -137 0
-1 201 0
-138 337 338 0
-337 -138 0
-1 201 0
-139 338 339 0
-338 -139 0
-1 201 0
-140 339 340 0
-339 -140 0
-1 201 0
-141 340 341 0
-340 -141 0
-1 201 0
-142 341 342 0
-341 -142 0
-1 201 0
-143 342 343 0
-342 -143 0
-1 201 0
-144 343 344 0
-343 -144 0
-1 201 0
-145 344 345 0
-344 -145 0
-1 201 0
-146 345 346 0
-345 -146 0
-1 201 0
-147 346 347 0
-346 -147 0
-1 201 0
-148 347 348 0
-347 -148 0
-1 201 0
-149 348 349 0
-348 -149 0
-1 201 0
-150 349 350 0
-349 -150 0
-1 201 0
-151 350 351 0
-350 -151 0
-1 201 0
-152 351 352 0
-351 -152 0
-1 201 0
-153 352 353 0
-352 -153 0
-1 201 0
-154 353 354 0
-353 -154 0
-1 201 0
-155 354 355 0
-354 -155 0
-1 201 0
-156 355 356 0
-355 -156 0
-1 201 0
-157 356 357 0
-356 -157 0
-1 201 0
-158 357 358 0
-357 -158 0
-1 201 0
-159 358 359 0
-358 -159 0
-1 201 0
-160 359 360 0
-359 -160 0
-1 201 0
-161 360 361 0
-360 -161 0
-1 201 0
-162 361 362 0
-361 -162 0
-1 201 0
-163 362 363 0
-362 -163 0
-1 201 0
-164 363 364 0
-363 -164 0
-1 201 0
-165 364 365 0
-364 -165 0
-1 201 0
-166 365 366 0
-365 -166 0
-1 201 0
-167 366 367 0
-366 -167 0
-1 201 0
-168 367 368 0
-367 -168 0
-1 201 0
-169 368 369 0
-368 -169 0
-1 201 0
-170 369 370 0
-369 -170 0
-1 201 0
-171 370 371 0
-370 -171 0
-1 201 0
-172 371 372 0
-371 -172 0
-1 201 0
-173 372 373 0
-372 -173 0
-1 201 0
-174 373 374 0
-373 -174 0
-1 201 0
-175 374 375 0
-374 -175 0
-1 201 0
-176 375 376 0
-375 -176 0
-1 201 0
-177 376 377 0
-376 -177 0
-1 201 0
-178 377 378 0
-377 -178 0
-1 201 0
-179 378 379 0
-378 -179 0
-1 201 0
-180 379 380 0
-379 -180 0
-1 201 0
-181 380 381 0
-380 -181 0
-1 201 0
-182 381 382 0
-381 -182 0
-1 201 0
-183 382 383 0
-382 -183 0
-1 201 0
-184 383 384 0
-383 -184 0
-1 201 0
-185 384 385 0
-384 -185 0
-1 201 0
-186 385 386 0
-385 -186 0
-1 201 0
-187 386 387 0
-386 -187 0
-1 201 0
-188 387 388 0
-387 -188 0
-1 201 0
-189 388 389 0
-388 -189 0
-1 201 0
-190 389 390 0
-389 -190 0
-1 201 0
-191 390 391 0
-390 -191 0
-1 201 0
-192 391 392 0
-391 -192 0
-1 201 0
-193 392 393 0
-392 -193 0
-1 201 0
-194 393 394 0
-393 -194 0
-1 201 0
-195 394 395 0
-394 -195 0
-1 201 0
-196 395 396 0
-395 -196 0
-1 201 0
-197 396 397 0
-396 -197 0
-1 201 0
-198 397 398 0
-397 -198 0
-1 201 0
-199 398 399 0
-398 -199 0
-399 -200 0